proyfinal/src/viki/013/andrea/andrea-localstore/experimentInOfficeAgust.take6/worker_10/3356b021-9119-435a-9ace-9e1697659b1e.als.cnf.out
Reading from standard input... Use '--help' for help.
============================[ Problem Statistics ]=============================
|                                                                             |
|  Number of variables:         87638                                         |
|  Number of clauses:          161767                                         |
|  Parse time:                   0.03 s                                       |
|                                                                             |
============================[ Search Statistics ]==============================
| Conflicts |          ORIGINAL         |          LEARNT          | Progress |
|           |    Vars  Clauses Literals |    Limit  Clauses Lit/Cl |          |
===============================================================================
|       100 |   62003   103869   259475 |    38085      100     21 | 29.251 % |
|       250 |   62003   103869   259475 |    41893      250     50 | 29.251 % |
|       475 |   62003   103869   259475 |    46083      475     49 | 29.251 % |
|       812 |   62003   103869   259475 |    50691      812     67 | 29.251 % |
|      1318 |   61985   103795   259304 |    55760     1317     72 | 29.272 % |
|      2077 |   61960   103655   258981 |    61336     2072     98 | 29.300 % |
|      3216 |   61940   103577   258798 |    67470     2816     93 | 29.323 % |
|      4924 |   61916   103481   258565 |    74217     4155     89 | 29.350 % |
|      7486 |   61916   103481   258565 |    81639     6717     91 | 29.350 % |
|     11330 |   61826   103080   257635 |    89803     9676     92 | 29.453 % |
===============================================================================
restarts              : 62
conflicts             : 14951          (6018 /sec)
decisions             : 47606          (0.00 % random) (19163 /sec)
propagations          : 26861871       (10812804 /sec)
conflict literals     : 1440475        (54.51 % deleted)
Memory used           : 44.52 MB
CPU time              : 2.48427 s

UNSATISFIABLE
